p cnf 639 1538
1 0
16 17 0
-16 -17 0
18 19 0
-18 -19 0
-15 16 0
-15 18 0
15 -16 -18 0
20 21 0
-20 -21 0
-14 15 0
-14 20 0
14 -15 -20 0
-23 15 0
23 -15 0
24 -21 0
-24 21 0
-22 23 0
-22 24 0
22 -23 -24 0
13 -14 0
13 -22 0
-13 14 22 0
27 17 0
-27 -17 0
28 -19 0
-28 19 0
-26 27 0
-26 28 0
26 -27 -28 0
29 21 0
-29 -21 0
-25 26 0
-25 29 0
25 -26 -29 0
12 -13 0
12 -25 0
-12 13 25 0
32 -17 0
-32 17 0
33 19 0
-33 -19 0
-31 32 0
-31 33 0
31 -32 -33 0
34 21 0
-34 -21 0
-30 31 0
-30 34 0
30 -31 -34 0
11 -12 0
11 -30 0
-11 12 30 0
-36 26 0
36 -26 0
37 -21 0
-37 21 0
-35 36 0
-35 37 0
35 -36 -37 0
-10 11 0
-10 35 0
10 -11 -35 0
45 46 0
-45 -46 0
47 48 0
-47 -48 0
-44 45 0
-44 47 0
44 -45 -47 0
49 50 0
-49 -50 0
-43 44 0
-43 49 0
43 -44 -49 0
-52 44 0
52 -44 0
53 -50 0
-53 50 0
-51 52 0
-51 53 0
51 -52 -53 0
42 -43 0
42 -51 0
-42 43 51 0
56 46 0
-56 -46 0
57 -48 0
-57 48 0
-55 56 0
-55 57 0
55 -56 -57 0
58 50 0
-58 -50 0
-54 55 0
-54 58 0
54 -55 -58 0
41 -42 0
41 -54 0
-41 42 54 0
61 -46 0
-61 46 0
62 48 0
-62 -48 0
-60 61 0
-60 62 0
60 -61 -62 0
63 50 0
-63 -50 0
-59 60 0
-59 63 0
59 -60 -63 0
40 -41 0
40 -59 0
-40 41 59 0
-65 55 0
65 -55 0
66 -50 0
-66 50 0
-64 65 0
-64 66 0
64 -65 -66 0
-39 40 0
-39 64 0
39 -40 -64 0
-67 35 0
67 -35 0
-38 39 0
-38 67 0
38 -39 -67 0
9 -10 0
9 -38 0
-9 10 38 0
75 76 0
-75 -76 0
77 78 0
-77 -78 0
-74 75 0
-74 77 0
74 -75 -77 0
79 80 0
-79 -80 0
-73 74 0
-73 79 0
73 -74 -79 0
-82 74 0
82 -74 0
83 -80 0
-83 80 0
-81 82 0
-81 83 0
81 -82 -83 0
72 -73 0
72 -81 0
-72 73 81 0
86 76 0
-86 -76 0
87 -78 0
-87 78 0
-85 86 0
-85 87 0
85 -86 -87 0
88 80 0
-88 -80 0
-84 85 0
-84 88 0
84 -85 -88 0
71 -72 0
71 -84 0
-71 72 84 0
91 -76 0
-91 76 0
92 78 0
-92 -78 0
-90 91 0
-90 92 0
90 -91 -92 0
93 80 0
-93 -80 0
-89 90 0
-89 93 0
89 -90 -93 0
70 -71 0
70 -89 0
-70 71 89 0
-95 85 0
95 -85 0
96 -80 0
-96 80 0
-94 95 0
-94 96 0
94 -95 -96 0
-69 70 0
-69 94 0
69 -70 -94 0
-98 35 0
98 -35 0
-99 64 0
99 -64 0
-97 98 0
-97 99 0
97 -98 -99 0
-68 69 0
-68 97 0
68 -69 -97 0
8 -9 0
8 -68 0
-8 9 68 0
107 108 0
-107 -108 0
109 110 0
-109 -110 0
-106 107 0
-106 109 0
106 -107 -109 0
111 112 0
-111 -112 0
-105 106 0
-105 111 0
105 -106 -111 0
-114 106 0
114 -106 0
115 -112 0
-115 112 0
-113 114 0
-113 115 0
113 -114 -115 0
104 -105 0
104 -113 0
-104 105 113 0
118 108 0
-118 -108 0
119 -110 0
-119 110 0
-117 118 0
-117 119 0
117 -118 -119 0
120 112 0
-120 -112 0
-116 117 0
-116 120 0
116 -117 -120 0
103 -104 0
103 -116 0
-103 104 116 0
123 -108 0
-123 108 0
124 110 0
-124 -110 0
-122 123 0
-122 124 0
122 -123 -124 0
125 112 0
-125 -112 0
-121 122 0
-121 125 0
121 -122 -125 0
102 -103 0
102 -121 0
-102 103 121 0
-127 117 0
127 -117 0
128 -112 0
-128 112 0
-126 127 0
-126 128 0
126 -127 -128 0
-101 102 0
-101 126 0
101 -102 -126 0
-130 97 0
130 -97 0
-131 94 0
131 -94 0
-129 130 0
-129 131 0
129 -130 -131 0
-100 101 0
-100 129 0
100 -101 -129 0
7 -8 0
7 -100 0
-7 8 100 0
139 140 0
-139 -140 0
141 142 0
-141 -142 0
-138 139 0
-138 141 0
138 -139 -141 0
143 144 0
-143 -144 0
-137 138 0
-137 143 0
137 -138 -143 0
-146 138 0
146 -138 0
147 -144 0
-147 144 0
-145 146 0
-145 147 0
145 -146 -147 0
136 -137 0
136 -145 0
-136 137 145 0
150 140 0
-150 -140 0
151 -142 0
-151 142 0
-149 150 0
-149 151 0
149 -150 -151 0
152 144 0
-152 -144 0
-148 149 0
-148 152 0
148 -149 -152 0
135 -136 0
135 -148 0
-135 136 148 0
155 -140 0
-155 140 0
156 142 0
-156 -142 0
-154 155 0
-154 156 0
154 -155 -156 0
157 144 0
-157 -144 0
-153 154 0
-153 157 0
153 -154 -157 0
134 -135 0
134 -153 0
-134 135 153 0
-159 149 0
159 -149 0
160 -144 0
-160 144 0
-158 159 0
-158 160 0
158 -159 -160 0
-133 134 0
-133 158 0
133 -134 -158 0
-162 129 0
162 -129 0
-163 126 0
163 -126 0
-161 162 0
-161 163 0
161 -162 -163 0
-132 133 0
-132 161 0
132 -133 -161 0
6 -7 0
6 -132 0
-6 7 132 0
171 172 0
-171 -172 0
173 174 0
-173 -174 0
-170 171 0
-170 173 0
170 -171 -173 0
175 176 0
-175 -176 0
-169 170 0
-169 175 0
169 -170 -175 0
-178 170 0
178 -170 0
179 -176 0
-179 176 0
-177 178 0
-177 179 0
177 -178 -179 0
168 -169 0
168 -177 0
-168 169 177 0
182 172 0
-182 -172 0
183 -174 0
-183 174 0
-181 182 0
-181 183 0
181 -182 -183 0
184 176 0
-184 -176 0
-180 181 0
-180 184 0
180 -181 -184 0
167 -168 0
167 -180 0
-167 168 180 0
187 -172 0
-187 172 0
188 174 0
-188 -174 0
-186 187 0
-186 188 0
186 -187 -188 0
189 176 0
-189 -176 0
-185 186 0
-185 189 0
185 -186 -189 0
166 -167 0
166 -185 0
-166 167 185 0
-191 181 0
191 -181 0
192 -176 0
-192 176 0
-190 191 0
-190 192 0
190 -191 -192 0
-165 166 0
-165 190 0
165 -166 -190 0
-194 161 0
194 -161 0
-195 158 0
195 -158 0
-193 194 0
-193 195 0
193 -194 -195 0
-164 165 0
-164 193 0
164 -165 -193 0
5 -6 0
5 -164 0
-5 6 164 0
203 204 0
-203 -204 0
205 206 0
-205 -206 0
-202 203 0
-202 205 0
202 -203 -205 0
207 208 0
-207 -208 0
-201 202 0
-201 207 0
201 -202 -207 0
-210 202 0
210 -202 0
211 -208 0
-211 208 0
-209 210 0
-209 211 0
209 -210 -211 0
200 -201 0
200 -209 0
-200 201 209 0
214 204 0
-214 -204 0
215 -206 0
-215 206 0
-213 214 0
-213 215 0
213 -214 -215 0
216 208 0
-216 -208 0
-212 213 0
-212 216 0
212 -213 -216 0
199 -200 0
199 -212 0
-199 200 212 0
219 -204 0
-219 204 0
220 206 0
-220 -206 0
-218 219 0
-218 220 0
218 -219 -220 0
221 208 0
-221 -208 0
-217 218 0
-217 221 0
217 -218 -221 0
198 -199 0
198 -217 0
-198 199 217 0
-223 213 0
223 -213 0
224 -208 0
-224 208 0
-222 223 0
-222 224 0
222 -223 -224 0
-197 198 0
-197 222 0
197 -198 -222 0
-226 193 0
226 -193 0
-227 190 0
227 -190 0
-225 226 0
-225 227 0
225 -226 -227 0
-196 197 0
-196 225 0
196 -197 -225 0
4 -5 0
4 -196 0
-4 5 196 0
235 236 0
-235 -236 0
237 238 0
-237 -238 0
-234 235 0
-234 237 0
234 -235 -237 0
239 240 0
-239 -240 0
-233 234 0
-233 239 0
233 -234 -239 0
-242 234 0
242 -234 0
243 -240 0
-243 240 0
-241 242 0
-241 243 0
241 -242 -243 0
232 -233 0
232 -241 0
-232 233 241 0
246 236 0
-246 -236 0
247 -238 0
-247 238 0
-245 246 0
-245 247 0
245 -246 -247 0
248 240 0
-248 -240 0
-244 245 0
-244 248 0
244 -245 -248 0
231 -232 0
231 -244 0
-231 232 244 0
251 -236 0
-251 236 0
252 238 0
-252 -238 0
-250 251 0
-250 252 0
250 -251 -252 0
253 240 0
-253 -240 0
-249 250 0
-249 253 0
249 -250 -253 0
230 -231 0
230 -249 0
-230 231 249 0
-255 245 0
255 -245 0
256 -240 0
-256 240 0
-254 255 0
-254 256 0
254 -255 -256 0
-229 230 0
-229 254 0
229 -230 -254 0
-258 225 0
258 -225 0
-259 222 0
259 -222 0
-257 258 0
-257 259 0
257 -258 -259 0
-228 229 0
-228 257 0
228 -229 -257 0
3 -4 0
3 -228 0
-3 4 228 0
-270 257 0
270 -257 0
-271 254 0
271 -254 0
-269 270 0
-269 271 0
269 -270 -271 0
-272 3 0
272 -3 0
268 -269 0
268 -272 0
-268 269 272 0
-279 249 0
279 -249 0
-280 22 0
280 -22 0
-278 279 0
-278 280 0
278 -279 -280 0
-282 254 0
282 -254 0
-283 30 0
283 -30 0
-281 282 0
-281 283 0
281 -282 -283 0
277 -278 0
277 -281 0
-277 278 281 0
-285 244 0
285 -244 0
-286 35 0
286 -35 0
-284 285 0
-284 286 0
284 -285 -286 0
276 -277 0
276 -284 0
-276 277 284 0
-288 241 0
288 -241 0
-289 25 0
289 -25 0
-287 288 0
-287 289 0
287 -288 -289 0
275 -276 0
275 -287 0
-275 276 287 0
-291 244 0
291 -244 0
-292 30 0
292 -30 0
-290 291 0
-290 292 0
290 -291 -292 0
274 -275 0
274 -290 0
-274 275 290 0
-294 233 0
294 -233 0
-295 22 0
295 -22 0
-293 294 0
-293 295 0
293 -294 -295 0
273 -274 0
273 -293 0
-273 274 293 0
-267 268 0
-267 273 0
267 -268 -273 0
-297 268 0
297 -268 0
-304 249 0
304 -249 0
-305 51 0
305 -51 0
-303 304 0
-303 305 0
303 -304 -305 0
-307 254 0
307 -254 0
-308 59 0
308 -59 0
-306 307 0
-306 308 0
306 -307 -308 0
302 -303 0
302 -306 0
-302 303 306 0
-310 244 0
310 -244 0
-311 64 0
311 -64 0
-309 310 0
-309 311 0
309 -310 -311 0
301 -302 0
301 -309 0
-301 302 309 0
-313 241 0
313 -241 0
-314 54 0
314 -54 0
-312 313 0
-312 314 0
312 -313 -314 0
300 -301 0
300 -312 0
-300 301 312 0
-316 244 0
316 -244 0
-317 59 0
317 -59 0
-315 316 0
-315 317 0
315 -316 -317 0
299 -300 0
299 -315 0
-299 300 315 0
-319 233 0
319 -233 0
-320 51 0
320 -51 0
-318 319 0
-318 320 0
318 -319 -320 0
298 -299 0
298 -318 0
-298 299 318 0
-296 297 0
-296 298 0
296 -297 -298 0
266 -267 0
266 -296 0
-266 267 296 0
-322 268 0
322 -268 0
-329 249 0
329 -249 0
-330 81 0
330 -81 0
-328 329 0
-328 330 0
328 -329 -330 0
-332 254 0
332 -254 0
-333 89 0
333 -89 0
-331 332 0
-331 333 0
331 -332 -333 0
327 -328 0
327 -331 0
-327 328 331 0
-335 244 0
335 -244 0
-336 94 0
336 -94 0
-334 335 0
-334 336 0
334 -335 -336 0
326 -327 0
326 -334 0
-326 327 334 0
-338 241 0
338 -241 0
-339 84 0
339 -84 0
-337 338 0
-337 339 0
337 -338 -339 0
325 -326 0
325 -337 0
-325 326 337 0
-341 244 0
341 -244 0
-342 89 0
342 -89 0
-340 341 0
-340 342 0
340 -341 -342 0
324 -325 0
324 -340 0
-324 325 340 0
-344 233 0
344 -233 0
-345 81 0
345 -81 0
-343 344 0
-343 345 0
343 -344 -345 0
323 -324 0
323 -343 0
-323 324 343 0
-321 322 0
-321 323 0
321 -322 -323 0
265 -266 0
265 -321 0
-265 266 321 0
-347 268 0
347 -268 0
-354 249 0
354 -249 0
-355 113 0
355 -113 0
-353 354 0
-353 355 0
353 -354 -355 0
-357 254 0
357 -254 0
-358 121 0
358 -121 0
-356 357 0
-356 358 0
356 -357 -358 0
352 -353 0
352 -356 0
-352 353 356 0
-360 244 0
360 -244 0
-361 126 0
361 -126 0
-359 360 0
-359 361 0
359 -360 -361 0
351 -352 0
351 -359 0
-351 352 359 0
-363 241 0
363 -241 0
-364 116 0
364 -116 0
-362 363 0
-362 364 0
362 -363 -364 0
350 -351 0
350 -362 0
-350 351 362 0
-366 244 0
366 -244 0
-367 121 0
367 -121 0
-365 366 0
-365 367 0
365 -366 -367 0
349 -350 0
349 -365 0
-349 350 365 0
-369 233 0
369 -233 0
-370 113 0
370 -113 0
-368 369 0
-368 370 0
368 -369 -370 0
348 -349 0
348 -368 0
-348 349 368 0
-346 347 0
-346 348 0
346 -347 -348 0
264 -265 0
264 -346 0
-264 265 346 0
-372 268 0
372 -268 0
-379 249 0
379 -249 0
-380 145 0
380 -145 0
-378 379 0
-378 380 0
378 -379 -380 0
-382 254 0
382 -254 0
-383 153 0
383 -153 0
-381 382 0
-381 383 0
381 -382 -383 0
377 -378 0
377 -381 0
-377 378 381 0
-385 244 0
385 -244 0
-386 158 0
386 -158 0
-384 385 0
-384 386 0
384 -385 -386 0
376 -377 0
376 -384 0
-376 377 384 0
-388 241 0
388 -241 0
-389 148 0
389 -148 0
-387 388 0
-387 389 0
387 -388 -389 0
375 -376 0
375 -387 0
-375 376 387 0
-391 244 0
391 -244 0
-392 153 0
392 -153 0
-390 391 0
-390 392 0
390 -391 -392 0
374 -375 0
374 -390 0
-374 375 390 0
-394 233 0
394 -233 0
-395 145 0
395 -145 0
-393 394 0
-393 395 0
393 -394 -395 0
373 -374 0
373 -393 0
-373 374 393 0
-371 372 0
-371 373 0
371 -372 -373 0
263 -264 0
263 -371 0
-263 264 371 0
-397 268 0
397 -268 0
-404 249 0
404 -249 0
-405 177 0
405 -177 0
-403 404 0
-403 405 0
403 -404 -405 0
-407 254 0
407 -254 0
-408 185 0
408 -185 0
-406 407 0
-406 408 0
406 -407 -408 0
402 -403 0
402 -406 0
-402 403 406 0
-410 244 0
410 -244 0
-411 190 0
411 -190 0
-409 410 0
-409 411 0
409 -410 -411 0
401 -402 0
401 -409 0
-401 402 409 0
-413 241 0
413 -241 0
-414 180 0
414 -180 0
-412 413 0
-412 414 0
412 -413 -414 0
400 -401 0
400 -412 0
-400 401 412 0
-416 244 0
416 -244 0
-417 185 0
417 -185 0
-415 416 0
-415 417 0
415 -416 -417 0
399 -400 0
399 -415 0
-399 400 415 0
-419 233 0
419 -233 0
-420 177 0
420 -177 0
-418 419 0
-418 420 0
418 -419 -420 0
398 -399 0
398 -418 0
-398 399 418 0
-396 397 0
-396 398 0
396 -397 -398 0
262 -263 0
262 -396 0
-262 263 396 0
-422 268 0
422 -268 0
-429 249 0
429 -249 0
-430 209 0
430 -209 0
-428 429 0
-428 430 0
428 -429 -430 0
-432 254 0
432 -254 0
-433 217 0
433 -217 0
-431 432 0
-431 433 0
431 -432 -433 0
427 -428 0
427 -431 0
-427 428 431 0
-435 244 0
435 -244 0
-436 222 0
436 -222 0
-434 435 0
-434 436 0
434 -435 -436 0
426 -427 0
426 -434 0
-426 427 434 0
-438 241 0
438 -241 0
-439 212 0
439 -212 0
-437 438 0
-437 439 0
437 -438 -439 0
425 -426 0
425 -437 0
-425 426 437 0
-441 244 0
441 -244 0
-442 217 0
442 -217 0
-440 441 0
-440 442 0
440 -441 -442 0
424 -425 0
424 -440 0
-424 425 440 0
-444 233 0
444 -233 0
-445 209 0
445 -209 0
-443 444 0
-443 445 0
443 -444 -445 0
423 -424 0
423 -443 0
-423 424 443 0
-421 422 0
-421 423 0
421 -422 -423 0
261 -262 0
261 -421 0
-261 262 421 0
-447 268 0
447 -268 0
-454 249 0
454 -249 0
-455 241 0
455 -241 0
-453 454 0
-453 455 0
453 -454 -455 0
-457 254 0
457 -254 0
-458 249 0
458 -249 0
-456 457 0
-456 458 0
456 -457 -458 0
452 -453 0
452 -456 0
-452 453 456 0
-460 244 0
460 -244 0
-461 254 0
461 -254 0
-459 460 0
-459 461 0
459 -460 -461 0
451 -452 0
451 -459 0
-451 452 459 0
-463 241 0
463 -241 0
-464 244 0
464 -244 0
-462 463 0
-462 464 0
462 -463 -464 0
450 -451 0
450 -462 0
-450 451 462 0
-466 244 0
466 -244 0
-467 249 0
467 -249 0
-465 466 0
-465 467 0
465 -466 -467 0
449 -450 0
449 -465 0
-449 450 465 0
-469 233 0
469 -233 0
-470 241 0
470 -241 0
-468 469 0
-468 470 0
468 -469 -470 0
448 -449 0
448 -468 0
-448 449 468 0
-446 447 0
-446 448 0
446 -447 -448 0
260 -261 0
260 -446 0
-260 261 446 0
2 -3 0
2 -260 0
-2 3 260 0
-484 30 0
484 -30 0
-485 51 0
485 -51 0
-483 484 0
-483 485 0
483 -484 -485 0
-487 35 0
487 -35 0
-488 59 0
488 -59 0
-486 487 0
-486 488 0
486 -487 -488 0
482 -483 0
482 -486 0
-482 483 486 0
-490 25 0
490 -25 0
-491 64 0
491 -64 0
-489 490 0
-489 491 0
489 -490 -491 0
481 -482 0
481 -489 0
-481 482 489 0
-493 22 0
493 -22 0
-494 54 0
494 -54 0
-492 493 0
-492 494 0
492 -493 -494 0
480 -481 0
480 -492 0
-480 481 492 0
-496 25 0
496 -25 0
-497 59 0
497 -59 0
-495 496 0
-495 497 0
495 -496 -497 0
479 -480 0
479 -495 0
-479 480 495 0
-499 14 0
499 -14 0
-500 51 0
500 -51 0
-498 499 0
-498 500 0
498 -499 -500 0
478 -479 0
478 -498 0
-478 479 498 0
-507 59 0
507 -59 0
-508 81 0
508 -81 0
-506 507 0
-506 508 0
506 -507 -508 0
-510 64 0
510 -64 0
-511 89 0
511 -89 0
-509 510 0
-509 511 0
509 -510 -511 0
505 -506 0
505 -509 0
-505 506 509 0
-513 54 0
513 -54 0
-514 94 0
514 -94 0
-512 513 0
-512 514 0
512 -513 -514 0
504 -505 0
504 -512 0
-504 505 512 0
-516 51 0
516 -51 0
-517 84 0
517 -84 0
-515 516 0
-515 517 0
515 -516 -517 0
503 -504 0
503 -515 0
-503 504 515 0
-519 54 0
519 -54 0
-520 89 0
520 -89 0
-518 519 0
-518 520 0
518 -519 -520 0
502 -503 0
502 -518 0
-502 503 518 0
-522 43 0
522 -43 0
-523 81 0
523 -81 0
-521 522 0
-521 523 0
521 -522 -523 0
501 -502 0
501 -521 0
-501 502 521 0
-477 478 0
-477 501 0
477 -478 -501 0
-530 89 0
530 -89 0
-531 113 0
531 -113 0
-529 530 0
-529 531 0
529 -530 -531 0
-533 94 0
533 -94 0
-534 121 0
534 -121 0
-532 533 0
-532 534 0
532 -533 -534 0
528 -529 0
528 -532 0
-528 529 532 0
-536 84 0
536 -84 0
-537 126 0
537 -126 0
-535 536 0
-535 537 0
535 -536 -537 0
527 -528 0
527 -535 0
-527 528 535 0
-539 81 0
539 -81 0
-540 116 0
540 -116 0
-538 539 0
-538 540 0
538 -539 -540 0
526 -527 0
526 -538 0
-526 527 538 0
-542 84 0
542 -84 0
-543 121 0
543 -121 0
-541 542 0
-541 543 0
541 -542 -543 0
525 -526 0
525 -541 0
-525 526 541 0
-545 73 0
545 -73 0
-546 113 0
546 -113 0
-544 545 0
-544 546 0
544 -545 -546 0
524 -525 0
524 -544 0
-524 525 544 0
-476 477 0
-476 524 0
476 -477 -524 0
-553 121 0
553 -121 0
-554 145 0
554 -145 0
-552 553 0
-552 554 0
552 -553 -554 0
-556 126 0
556 -126 0
-557 153 0
557 -153 0
-555 556 0
-555 557 0
555 -556 -557 0
551 -552 0
551 -555 0
-551 552 555 0
-559 116 0
559 -116 0
-560 158 0
560 -158 0
-558 559 0
-558 560 0
558 -559 -560 0
550 -551 0
550 -558 0
-550 551 558 0
-562 113 0
562 -113 0
-563 148 0
563 -148 0
-561 562 0
-561 563 0
561 -562 -563 0
549 -550 0
549 -561 0
-549 550 561 0
-565 116 0
565 -116 0
-566 153 0
566 -153 0
-564 565 0
-564 566 0
564 -565 -566 0
548 -549 0
548 -564 0
-548 549 564 0
-568 105 0
568 -105 0
-569 145 0
569 -145 0
-567 568 0
-567 569 0
567 -568 -569 0
547 -548 0
547 -567 0
-547 548 567 0
-475 476 0
-475 547 0
475 -476 -547 0
-576 153 0
576 -153 0
-577 177 0
577 -177 0
-575 576 0
-575 577 0
575 -576 -577 0
-579 158 0
579 -158 0
-580 185 0
580 -185 0
-578 579 0
-578 580 0
578 -579 -580 0
574 -575 0
574 -578 0
-574 575 578 0
-582 148 0
582 -148 0
-583 190 0
583 -190 0
-581 582 0
-581 583 0
581 -582 -583 0
573 -574 0
573 -581 0
-573 574 581 0
-585 145 0
585 -145 0
-586 180 0
586 -180 0
-584 585 0
-584 586 0
584 -585 -586 0
572 -573 0
572 -584 0
-572 573 584 0
-588 148 0
588 -148 0
-589 185 0
589 -185 0
-587 588 0
-587 589 0
587 -588 -589 0
571 -572 0
571 -587 0
-571 572 587 0
-591 137 0
591 -137 0
-592 177 0
592 -177 0
-590 591 0
-590 592 0
590 -591 -592 0
570 -571 0
570 -590 0
-570 571 590 0
-474 475 0
-474 570 0
474 -475 -570 0
-599 185 0
599 -185 0
-600 209 0
600 -209 0
-598 599 0
-598 600 0
598 -599 -600 0
-602 190 0
602 -190 0
-603 217 0
603 -217 0
-601 602 0
-601 603 0
601 -602 -603 0
597 -598 0
597 -601 0
-597 598 601 0
-605 180 0
605 -180 0
-606 222 0
606 -222 0
-604 605 0
-604 606 0
604 -605 -606 0
596 -597 0
596 -604 0
-596 597 604 0
-608 177 0
608 -177 0
-609 212 0
609 -212 0
-607 608 0
-607 609 0
607 -608 -609 0
595 -596 0
595 -607 0
-595 596 607 0
-611 180 0
611 -180 0
-612 217 0
612 -217 0
-610 611 0
-610 612 0
610 -611 -612 0
594 -595 0
594 -610 0
-594 595 610 0
-614 169 0
614 -169 0
-615 209 0
615 -209 0
-613 614 0
-613 615 0
613 -614 -615 0
593 -594 0
593 -613 0
-593 594 613 0
-473 474 0
-473 593 0
473 -474 -593 0
-622 217 0
622 -217 0
-623 241 0
623 -241 0
-621 622 0
-621 623 0
621 -622 -623 0
-625 222 0
625 -222 0
-626 249 0
626 -249 0
-624 625 0
-624 626 0
624 -625 -626 0
620 -621 0
620 -624 0
-620 621 624 0
-628 212 0
628 -212 0
-629 254 0
629 -254 0
-627 628 0
-627 629 0
627 -628 -629 0
619 -620 0
619 -627 0
-619 620 627 0
-631 209 0
631 -209 0
-632 244 0
632 -244 0
-630 631 0
-630 632 0
630 -631 -632 0
618 -619 0
618 -630 0
-618 619 630 0
-634 212 0
634 -212 0
-635 249 0
635 -249 0
-633 634 0
-633 635 0
633 -634 -635 0
617 -618 0
617 -633 0
-617 618 633 0
-637 201 0
637 -201 0
-638 241 0
638 -241 0
-636 637 0
-636 638 0
636 -637 -638 0
616 -617 0
616 -636 0
-616 617 636 0
-472 473 0
-472 616 0
472 -473 -616 0
-639 14 0
639 -14 0
-471 472 0
-471 639 0
471 -472 -639 0
-1 2 0
-1 471 0
1 -2 -471 0
